65036
0 0 1 0 0 0 0 0 0 0 0 0 1 0 1 0 1 1 0 0 1 0 0 0 1 0 0 0 1 0 
17 28 2 24 17 2 24 28 20 16 17 28 28 24 12 28 24 14 16 20 12 28 17 2 2 28 24 12 24 17 14 20 24 16 12 2 16 28 24 12 16 2 12 14 2 24 12 20 16 14 17 17 24 24 12 12 12 16 16 24 14 14 14 14 28 2 14 17 24 28 24 16 28 24 17 16 14 16 14 24 16 12 28 17 14 14 14 20 12 14 14 17 24 14 2 2 12 2 2 12 2 16 28 16 20 24 28 24 20 28 17 28 20 12 12 2 17 2 17 28 14 24 2 2 16 28 12 17 20 20 24 28 16 20 28 17 24 2 17 14 12 17 17 24 2 20 16 16 28 16 2 16 14 24 28 24 28 17 28 2 14 28 2 16 16 14 28 12 28 24 20 20 28 12 14 17 16 28 17 17 24 16 12 17 12 17 12 17 2 2 28 2 20 2 14 12 12 16 2 24 
